893544
58, 61, 35, 97, 42, 91, 53, 8, 89, 85, 3, 5, 64, 2, 27, 67, 11, 23, 54, 98, 28, 46, 34, 71, 90, 59, 24, 65, 52, 43, 19, 12, 17, 26, 94, 40, 29, 79, 51, 78, 25, 73, 22, 84, 92, 39, 14, 81, 86, 45, 7, 4, 66, 95, 47, 57, 33, 9, 70, 13, 63, 68, 80, 99, 36, 72, 44, 31, 41, 6, 56, 10, 30, 96, 20, 60, 32, 37, 1, 48, 87, 76, 38, 50, 88, 83, 15, 16, 82, 55, 93, 62, 49, 18, 75, 69, 77, 21, 74
